r = [
0,111,147,55,151,147,174,184,121,187,158,23,61,24,78,58,204,164,153,8,45,155,2,155,139,32,0
];
p = [
0,29,12,9,21,23,18,5,19,30,24,23,23,30,11,8,16,1,19,5,11,27,19,17,24,7,0
];
e = [
0,16,19,12,4,15,12,4,20,14,20,4,8,17,2,1,20,12,6,1,14,17,1,2,18,13,0
];
d = [
0,397,402,106,212,511,385,228,268,492,233,268,218,305,121,464,557,413,341,270,273,487,379,253,363,96,571
];
d_bar = [
0,423,413,114,231,532,401,233,285,519,255,289,239,332,131,471,571,414,358,275,283,511,396,268,385,102,571
];
w = [
0,0.615384615,1.727272727,1.5,0.210526316,0.714285714,0.75,0.8,1.176470588,0.518518519,0.909090909,0.19047619,0.380952381,0.62962963,0.2,0.142857143,1.428571429,12,0.352941176,0.2,1.4,0.708333333,0.058823529,0.133333333,0.818181818,2.166666667,0
];
